12
0 45 85 15 90 33 28 56 41 20 54 53 
45 0 98 93 76 84 94 12 35 51 57 39 
85 98 0 48 97 15 40 28 83 19 97 33 
15 93 48 0 54 65 71 83 79 98 7 77 
90 76 97 54 0 43 42 96 99 25 89 57 
33 84 15 65 43 0 48 28 55 66 91 92 
28 94 40 71 42 48 0 79 76 55 28 36 
56 12 28 83 96 28 79 0 4 59 47 58 
41 35 83 79 99 55 76 4 0 36 22 48 
20 51 19 98 25 66 55 59 36 0 65 43 
54 57 97 7 89 91 28 47 22 65 0 57 
53 39 33 77 57 92 36 58 48 43 57 0 
